
Gurobi 10.0.1 (win64) logging started Mon May  1 20:12:00 2023

Set parameter LogFile to value "logFiles/N-1L-C/N-1L-14U-19F-23V-180D-combined.log"
Gurobi Optimizer version 10.0.1 build v10.0.1rc0 (win64)

CPU model: Intel(R) Core(TM) i7-10700 CPU @ 2.90GHz, instruction set [SSE2|AVX|AVX2]
Thread count: 8 physical cores, 16 logical processors, using up to 16 threads

Optimize a model with 198155 rows, 1580685 columns and 15488194 nonzeros
Model fingerprint: 0x7509f277
Variable types: 4575 continuous, 1576110 integer (1576110 binary)
Coefficient statistics:
  Matrix range     [1e+00, 2e+05]
  Objective range  [4e+01, 3e+07]
  Bounds range     [1e+00, 1e+00]
  RHS range        [1e+00, 5e+06]
Presolve removed 69339 rows and 55397 columns (presolve time = 5s) ...
Presolve removed 79058 rows and 127986 columns (presolve time = 10s) ...
Presolve removed 137132 rows and 130289 columns (presolve time = 15s) ...
Presolve removed 137452 rows and 130625 columns (presolve time = 20s) ...
Presolve removed 139337 rows and 132536 columns (presolve time = 25s) ...
Presolve removed 139338 rows and 132764 columns (presolve time = 30s) ...
Presolve removed 139828 rows and 133099 columns (presolve time = 35s) ...
Presolve removed 140270 rows and 133497 columns
Presolve time: 38.02s
Presolved: 57885 rows, 1447188 columns, 8427031 nonzeros
Variable types: 2773 continuous, 1444415 integer (1444415 binary)
Deterministic concurrent LP optimizer: primal simplex, dual simplex, and barrier
Showing barrier log only...

Root barrier log...

Ordering time: 4.62s

Barrier statistics:
 AA' NZ     : 3.857e+06
 Factor NZ  : 1.472e+07 (roughly 700 MB of memory)
 Factor Ops : 2.604e+10 (less than 1 second per iteration)
 Threads    : 5

                  Objective                Residual
Iter       Primal          Dual         Primal    Dual     Compl     Time
   0  -9.81590337e+16  1.91932824e+12  1.28e+10 6.26e+05  3.56e+11    59s
   1  -1.82040524e+16  3.57298677e+12  2.37e+09 1.43e+05  6.65e+10    60s

Barrier performed 1 iterations in 60.20 seconds (112.48 work units)
Time limit reached



Root relaxation: time limit, 0 iterations, 15.78 seconds (9.44 work units)

Explored 1 nodes (0 simplex iterations) in 60.52 seconds (104.34 work units)
Thread count was 16 (of 16 available processors)

Solution count 0

Time limit reached
Best objective -, best bound 1.119225122435e+13, gap -
IIS computation: initial model status unknown, solving to determine model status
Presolve removed 69339 rows and 55397 columns (presolve time = 5s) ...
Presolve removed 79119 rows and 128662 columns (presolve time = 10s) ...
Presolve removed 137832 rows and 131326 columns (presolve time = 15s) ...
Presolve removed 138102 rows and 131612 columns (presolve time = 20s) ...
Presolve removed 139906 rows and 133614 columns (presolve time = 25s) ...
Presolve removed 139906 rows and 133678 columns (presolve time = 30s) ...
Presolve removed 140387 rows and 134006 columns (presolve time = 35s) ...
Presolve removed 140270 rows and 133889 columns
Presolve time: 36.91s
Presolved: 57885 rows, 1446796 columns, 8424794 nonzeros
Variable types: 2773 continuous, 1444023 integer (1444023 binary)
Deterministic concurrent LP optimizer: primal simplex, dual simplex, and barrier
Showing barrier log only...

Root barrier log...

Ordering time: 3.35s

Barrier statistics:
 AA' NZ     : 3.857e+06
 Factor NZ  : 1.472e+07 (roughly 700 MB of memory)
 Factor Ops : 2.604e+10 (less than 1 second per iteration)
 Threads    : 5

                  Objective                Residual
Iter       Primal          Dual         Primal    Dual     Compl     Time
   0  -0.00000000e+00  1.37281832e+05  1.28e+10 0.00e+00  2.34e+04    59s
   1  -0.00000000e+00  2.55785334e+05  1.96e+09 4.32e-03  3.61e+03    60s

Barrier performed 1 iterations in 60.08 seconds (113.74 work units)
Time limit reached



Root relaxation: time limit, 0 iterations, 14.38 seconds (11.42 work units)

Explored 1 nodes (0 simplex iterations) in 60.32 seconds (106.81 work units)
Thread count was 16 (of 16 available processors)

Solution count 0

Time limit reached
Best objective -, best bound -0.000000000000e+00, gap -
IIS runtime: 60.42 seconds (106.81 work units)
